200
1000
264
263
262
261
259
257
256
256
255
255
253
253
253
251
250
249
248
247
246
246
245
244
244
241
240
240
237
235
234
233
229
229
229
227
226
225
222
222
222
221
221
218
217
217
216
216
215
215
214
213
211
211
211
208
208
208
208
207
206
204
204
199
193
193
192
191
191
190
189
189
188
187
185
184
183
181
180
176
175
175
175
171
170
169
169
165
164
161
160
159
159
158
158
158
154
154
152
151
149
148
146
145
143
142
141
140
137
136
135
131
130
130
128
127
126
125
125
124
120
120
119
118
115
114
108
107
107
104
103
101
101
97
97
97
96
95
94
94
93
92
92
91
90
89
89
88
85
84
84
83
83
78
76
75
74
74
72
70
70
69
68
67
66
65
64
64
60
56
56
56
56
52
51
51
50
48
44
41
41
40
37
36
36
35
35
31
31
30
28
28
27
26
25
22
21
18
17
17
16
16
